GLPSOL--GLPK LP/MIP Solver 5.0
Parameter(s) specified in the command line:
 --lp ../modeles/4_74.lp --log 4_74.log
Reading problem data from '../modeles/4_74.lp'...
313 rows, 600 columns, 2084 non-zeros
296 integer variables, all of which are binary
923 lines were read
GLPK Integer Optimizer 5.0
313 rows, 600 columns, 2084 non-zeros
296 integer variables, all of which are binary
Preprocessing...
296 constraint coefficient(s) were reduced
313 rows, 596 columns, 2080 non-zeros
296 integer variables, all of which are binary
Scaling...
 A: min|aij| =  2.922e-03  max|aij| =  4.000e+00  ratio =  1.369e+03
GM: min|aij| =  1.644e-01  max|aij| =  6.083e+00  ratio =  3.700e+01
EQ: min|aij| =  2.703e-02  max|aij| =  1.000e+00  ratio =  3.700e+01
2N: min|aij| =  1.562e-02  max|aij| =  1.689e+00  ratio =  1.081e+02
Constructing initial basis...
Size of triangular part is 313
Solving LP relaxation...
GLPK Simplex Optimizer 5.0
313 rows, 596 columns, 2080 non-zeros
      0: obj =   8.000000000e+00 inf =   1.140e+02 (9)
     35: obj =   1.816684962e-01 inf =   0.000e+00 (0)
*   119: obj =  -1.997866287e+00 inf =   5.127e-16 (0)
OPTIMAL LP SOLUTION FOUND
Integer optimization begins...
Long-step dual simplex will be used
+   119: mip =     not found yet >=              -inf        (1; 0)
+   126: >>>>>  -1.997615262e+00 >=  -1.997866287e+00 < 0.1% (4; 0)
+   129: >>>>>  -1.997866287e+00 >=  -1.997866287e+00 < 0.1% (2; 5)
+   129: mip =  -1.997866287e+00 >=     tree is empty   0.0% (0; 9)
INTEGER OPTIMAL SOLUTION FOUND
Time used:   0.0 secs
Memory used: 0.9 Mb (969622 bytes)
